$instance size is  500
letting capacity be  124157
letting items be new type enum { 
a1,a2,a3,a4,a5,a6,a7,a8,a9,a10,a11,a12,a13,a14,a15,a16,a17,a18,a19,a20,a21,a22,a23,a24,a25,a26,a27,a28,a29,a30,a31,a32,a33,a34,a35,a36,a37,a38,a39,a40,a41,a42,a43,a44,a45,a46,a47,a48,a49,a50,a51,a52,a53,a54,a55,a56,a57,a58,a59,a60,a61,a62,a63,a64,a65,a66,a67,a68,a69,a70,a71,a72,a73,a74,a75,a76,a77,a78,a79,a80,a81,a82,a83,a84,a85,a86,a87,a88,a89,a90,a91,a92,a93,a94,a95,a96,a97,a98,a99,a100,a101,a102,a103,a104,a105,a106,a107,a108,a109,a110,a111,a112,a113,a114,a115,a116,a117,a118,a119,a120,a121,a122,a123,a124,a125,a126,a127,a128,a129,a130,a131,a132,a133,a134,a135,a136,a137,a138,a139,a140,a141,a142,a143,a144,a145,a146,a147,a148,a149,a150,a151,a152,a153,a154,a155,a156,a157,a158,a159,a160,a161,a162,a163,a164,a165,a166,a167,a168,a169,a170,a171,a172,a173,a174,a175,a176,a177,a178,a179,a180,a181,a182,a183,a184,a185,a186,a187,a188,a189,a190,a191,a192,a193,a194,a195,a196,a197,a198,a199,a200,a201,a202,a203,a204,a205,a206,a207,a208,a209,a210,a211,a212,a213,a214,a215,a216,a217,a218,a219,a220,a221,a222,a223,a224,a225,a226,a227,a228,a229,a230,a231,a232,a233,a234,a235,a236,a237,a238,a239,a240,a241,a242,a243,a244,a245,a246,a247,a248,a249,a250,a251,a252,a253,a254,a255,a256,a257,a258,a259,a260,a261,a262,a263,a264,a265,a266,a267,a268,a269,a270,a271,a272,a273,a274,a275,a276,a277,a278,a279,a280,a281,a282,a283,a284,a285,a286,a287,a288,a289,a290,a291,a292,a293,a294,a295,a296,a297,a298,a299,a300,a301,a302,a303,a304,a305,a306,a307,a308,a309,a310,a311,a312,a313,a314,a315,a316,a317,a318,a319,a320,a321,a322,a323,a324,a325,a326,a327,a328,a329,a330,a331,a332,a333,a334,a335,a336,a337,a338,a339,a340,a341,a342,a343,a344,a345,a346,a347,a348,a349,a350,a351,a352,a353,a354,a355,a356,a357,a358,a359,a360,a361,a362,a363,a364,a365,a366,a367,a368,a369,a370,a371,a372,a373,a374,a375,a376,a377,a378,a379,a380,a381,a382,a383,a384,a385,a386,a387,a388,a389,a390,a391,a392,a393,a394,a395,a396,a397,a398,a399,a400,a401,a402,a403,a404,a405,a406,a407,a408,a409,a410,a411,a412,a413,a414,a415,a416,a417,a418,a419,a420,a421,a422,a423,a424,a425,a426,a427,a428,a429,a430,a431,a432,a433,a434,a435,a436,a437,a438,a439,a440,a441,a442,a443,a444,a445,a446,a447,a448,a449,a450,a451,a452,a453,a454,a455,a456,a457,a458,a459,a460,a461,a462,a463,a464,a465,a466,a467,a468,a469,a470,a471,a472,a473,a474,a475,a476,a477,a478,a479,a480,a481,a482,a483,a484,a485,a486,a487,a488,a489,a490,a491,a492,a493,a494,a495,a496,a497,a498,a499,a500
}
letting weight be function (
a1 --> 586,a2 --> 915,a3 --> 156,a4 --> 272,a5 --> 278,a6 --> 629,a7 --> 198,a8 --> 632,a9 --> 435,a10 --> 991,a11 --> 971,a12 --> 15,a13 --> 383,a14 --> 822,a15 --> 83,a16 --> 640,a17 --> 170,a18 --> 470,a19 --> 687,a20 --> 6,a21 --> 286,a22 --> 347,a23 --> 472,a24 --> 564,a25 --> 693,a26 --> 483,a27 --> 404,a28 --> 532,a29 --> 294,a30 --> 917,a31 --> 377,a32 --> 716,a33 --> 80,a34 --> 931,a35 --> 600,a36 --> 217,a37 --> 205,a38 --> 979,a39 --> 683,a40 --> 904,a41 --> 568,a42 --> 986,a43 --> 134,a44 --> 503,a45 --> 63,a46 --> 927,a47 --> 865,a48 --> 913,a49 --> 185,a50 --> 30,a51 --> 939,a52 --> 479,a53 --> 215,a54 --> 409,a55 --> 1000,a56 --> 494,a57 --> 423,a58 --> 560,a59 --> 92,a60 --> 199,a61 --> 420,a62 --> 698,a63 --> 278,a64 --> 394,a65 --> 623,a66 --> 729,a67 --> 309,a68 --> 874,a69 --> 865,a70 --> 538,a71 --> 877,a72 --> 307,a73 --> 285,a74 --> 474,a75 --> 171,a76 --> 390,a77 --> 338,a78 --> 9,a79 --> 20,a80 --> 884,a81 --> 271,a82 --> 754,a83 --> 402,a84 --> 702,a85 --> 925,a86 --> 25,a87 --> 686,a88 --> 547,a89 --> 168,a90 --> 259,a91 --> 166,a92 --> 706,a93 --> 590,a94 --> 449,a95 --> 184,a96 --> 147,a97 --> 781,a98 --> 36,a99 --> 165,a100 --> 361,a101 --> 153,a102 --> 226,a103 --> 807,a104 --> 666,a105 --> 859,a106 --> 767,a107 --> 978,a108 --> 13,a109 --> 698,a110 --> 869,a111 --> 998,a112 --> 770,a113 --> 174,a114 --> 780,a115 --> 434,a116 --> 149,a117 --> 71,a118 --> 89,a119 --> 466,a120 --> 131,a121 --> 546,a122 --> 699,a123 --> 610,a124 --> 587,a125 --> 236,a126 --> 881,a127 --> 161,a128 --> 542,a129 --> 116,a130 --> 21,a131 --> 631,a132 --> 607,a133 --> 532,a134 --> 707,a135 --> 510,a136 --> 52,a137 --> 321,a138 --> 482,a139 --> 483,a140 --> 722,a141 --> 230,a142 --> 457,a143 --> 726,a144 --> 76,a145 --> 180,a146 --> 115,a147 --> 213,a148 --> 555,a149 --> 541,a150 --> 419,a151 --> 493,a152 --> 15,a153 --> 996,a154 --> 864,a155 --> 601,a156 --> 580,a157 --> 678,a158 --> 457,a159 --> 400,a160 --> 909,a161 --> 659,a162 --> 354,a163 --> 778,a164 --> 349,a165 --> 93,a166 --> 405,a167 --> 411,a168 --> 616,a169 --> 966,a170 --> 913,a171 --> 511,a172 --> 326,a173 --> 518,a174 --> 798,a175 --> 395,a176 --> 680,a177 --> 243,a178 --> 102,a179 --> 746,a180 --> 617,a181 --> 855,a182 --> 518,a183 --> 477,a184 --> 613,a185 --> 981,a186 --> 378,a187 --> 233,a188 --> 796,a189 --> 308,a190 --> 419,a191 --> 757,a192 --> 64,a193 --> 674,a194 --> 484,a195 --> 984,a196 --> 154,a197 --> 697,a198 --> 968,a199 --> 695,a200 --> 872,a201 --> 956,a202 --> 454,a203 --> 92,a204 --> 666,a205 --> 522,a206 --> 597,a207 --> 231,a208 --> 728,a209 --> 954,a210 --> 743,a211 --> 785,a212 --> 117,a213 --> 349,a214 --> 961,a215 --> 596,a216 --> 783,a217 --> 399,a218 --> 321,a219 --> 940,a220 --> 235,a221 --> 390,a222 --> 719,a223 --> 976,a224 --> 117,a225 --> 961,a226 --> 708,a227 --> 776,a228 --> 78,a229 --> 33,a230 --> 53,a231 --> 256,a232 --> 459,a233 --> 530,a234 --> 976,a235 --> 452,a236 --> 285,a237 --> 299,a238 --> 389,a239 --> 42,a240 --> 539,a241 --> 601,a242 --> 741,a243 --> 130,a244 --> 856,a245 --> 456,a246 --> 526,a247 --> 824,a248 --> 579,a249 --> 305,a250 --> 534,a251 --> 520,a252 --> 26,a253 --> 716,a254 --> 347,a255 --> 753,a256 --> 85,a257 --> 848,a258 --> 616,a259 --> 707,a260 --> 273,a261 --> 237,a262 --> 370,a263 --> 88,a264 --> 194,a265 --> 841,a266 --> 183,a267 --> 846,a268 --> 831,a269 --> 703,a270 --> 733,a271 --> 922,a272 --> 617,a273 --> 320,a274 --> 297,a275 --> 550,a276 --> 195,a277 --> 246,a278 --> 749,a279 --> 259,a280 --> 579,a281 --> 148,a282 --> 607,a283 --> 551,a284 --> 871,a285 --> 695,a286 --> 504,a287 --> 840,a288 --> 113,a289 --> 207,a290 --> 458,a291 --> 967,a292 --> 579,a293 --> 358,a294 --> 593,a295 --> 222,a296 --> 11,a297 --> 47,a298 --> 59,a299 --> 73,a300 --> 607,a301 --> 936,a302 --> 375,a303 --> 928,a304 --> 794,a305 --> 568,a306 --> 569,a307 --> 259,a308 --> 269,a309 --> 593,a310 --> 284,a311 --> 924,a312 --> 222,a313 --> 966,a314 --> 606,a315 --> 944,a316 --> 412,a317 --> 125,a318 --> 215,a319 --> 582,a320 --> 311,a321 --> 734,a322 --> 353,a323 --> 437,a324 --> 140,a325 --> 563,a326 --> 985,a327 --> 178,a328 --> 895,a329 --> 509,a330 --> 212,a331 --> 87,a332 --> 984,a333 --> 124,a334 --> 370,a335 --> 957,a336 --> 62,a337 --> 799,a338 --> 759,a339 --> 778,a340 --> 950,a341 --> 295,a342 --> 940,a343 --> 83,a344 --> 140,a345 --> 505,a346 --> 753,a347 --> 715,a348 --> 495,a349 --> 408,a350 --> 798,a351 --> 841,a352 --> 161,a353 --> 86,a354 --> 125,a355 --> 886,a356 --> 877,a357 --> 75,a358 --> 666,a359 --> 84,a360 --> 887,a361 --> 820,a362 --> 682,a363 --> 679,a364 --> 935,a365 --> 341,a366 --> 719,a367 --> 943,a368 --> 837,a369 --> 471,a370 --> 41,a371 --> 532,a372 --> 830,a373 --> 10,a374 --> 158,a375 --> 648,a376 --> 733,a377 --> 531,a378 --> 106,a379 --> 128,a380 --> 770,a381 --> 551,a382 --> 71,a383 --> 955,a384 --> 414,a385 --> 630,a386 --> 750,a387 --> 489,a388 --> 980,a389 --> 560,a390 --> 180,a391 --> 708,a392 --> 650,a393 --> 227,a394 --> 462,a395 --> 674,a396 --> 925,a397 --> 362,a398 --> 964,a399 --> 160,a400 --> 24,a401 --> 190,a402 --> 713,a403 --> 120,a404 --> 525,a405 --> 497,a406 --> 976,a407 --> 836,a408 --> 785,a409 --> 830,a410 --> 472,a411 --> 696,a412 --> 20,a413 --> 794,a414 --> 401,a415 --> 355,a416 --> 782,a417 --> 109,a418 --> 605,a419 --> 446,a420 --> 563,a421 --> 473,a422 --> 583,a423 --> 290,a424 --> 543,a425 --> 969,a426 --> 942,a427 --> 30,a428 --> 867,a429 --> 803,a430 --> 762,a431 --> 295,a432 --> 45,a433 --> 246,a434 --> 414,a435 --> 558,a436 --> 19,a437 --> 780,a438 --> 284,a439 --> 693,a440 --> 344,a441 --> 993,a442 --> 723,a443 --> 329,a444 --> 989,a445 --> 849,a446 --> 268,a447 --> 881,a448 --> 313,a449 --> 573,a450 --> 792,a451 --> 380,a452 --> 217,a453 --> 790,a454 --> 779,a455 --> 159,a456 --> 368,a457 --> 344,a458 --> 740,a459 --> 509,a460 --> 287,a461 --> 112,a462 --> 194,a463 --> 628,a464 --> 438,a465 --> 582,a466 --> 96,a467 --> 318,a468 --> 144,a469 --> 572,a470 --> 553,a471 --> 524,a472 --> 275,a473 --> 236,a474 --> 20,a475 --> 573,a476 --> 541,a477 --> 756,a478 --> 904,a479 --> 229,a480 --> 200,a481 --> 213,a482 --> 273,a483 --> 542,a484 --> 542,a485 --> 368,a486 --> 545,a487 --> 386,a488 --> 964,a489 --> 919,a490 --> 135,a491 --> 413,a492 --> 3,a493 --> 178,a494 --> 859,a495 --> 583,a496 --> 410,a497 --> 446,a498 --> 311,a499 --> 336,a500 --> 861
)
letting gain be function (
a1 --> 588,a2 --> 915,a3 --> 156,a4 --> 273,a5 --> 279,a6 --> 630,a7 --> 198,a8 --> 633,a9 --> 435,a10 --> 993,a11 --> 972,a12 --> 15,a13 --> 384,a14 --> 822,a15 --> 84,a16 --> 642,a17 --> 171,a18 --> 471,a19 --> 687,a20 --> 6,a21 --> 288,a22 --> 348,a23 --> 474,a24 --> 564,a25 --> 693,a26 --> 483,a27 --> 405,a28 --> 534,a29 --> 294,a30 --> 918,a31 --> 378,a32 --> 717,a33 --> 81,a34 --> 933,a35 --> 600,a36 --> 219,a37 --> 207,a38 --> 981,a39 --> 684,a40 --> 906,a41 --> 570,a42 --> 987,a43 --> 135,a44 --> 504,a45 --> 63,a46 --> 927,a47 --> 867,a48 --> 915,a49 --> 186,a50 --> 30,a51 --> 939,a52 --> 480,a53 --> 216,a54 --> 411,a55 --> 1002,a56 --> 495,a57 --> 423,a58 --> 561,a59 --> 93,a60 --> 201,a61 --> 420,a62 --> 699,a63 --> 279,a64 --> 396,a65 --> 624,a66 --> 729,a67 --> 309,a68 --> 876,a69 --> 867,a70 --> 540,a71 --> 879,a72 --> 309,a73 --> 285,a74 --> 474,a75 --> 171,a76 --> 390,a77 --> 339,a78 --> 9,a79 --> 21,a80 --> 885,a81 --> 273,a82 --> 756,a83 --> 402,a84 --> 702,a85 --> 927,a86 --> 27,a87 --> 687,a88 --> 549,a89 --> 168,a90 --> 261,a91 --> 168,a92 --> 708,a93 --> 591,a94 --> 450,a95 --> 186,a96 --> 147,a97 --> 783,a98 --> 36,a99 --> 165,a100 --> 363,a101 --> 153,a102 --> 228,a103 --> 807,a104 --> 666,a105 --> 861,a106 --> 768,a107 --> 978,a108 --> 15,a109 --> 699,a110 --> 870,a111 --> 999,a112 --> 771,a113 --> 174,a114 --> 780,a115 --> 435,a116 --> 150,a117 --> 72,a118 --> 90,a119 --> 468,a120 --> 132,a121 --> 546,a122 --> 699,a123 --> 612,a124 --> 588,a125 --> 237,a126 --> 882,a127 --> 162,a128 --> 543,a129 --> 117,a130 --> 21,a131 --> 633,a132 --> 609,a133 --> 534,a134 --> 708,a135 --> 510,a136 --> 54,a137 --> 321,a138 --> 483,a139 --> 483,a140 --> 723,a141 --> 231,a142 --> 459,a143 --> 726,a144 --> 78,a145 --> 180,a146 --> 117,a147 --> 213,a148 --> 555,a149 --> 543,a150 --> 420,a151 --> 495,a152 --> 15,a153 --> 996,a154 --> 864,a155 --> 603,a156 --> 582,a157 --> 678,a158 --> 459,a159 --> 402,a160 --> 909,a161 --> 660,a162 --> 354,a163 --> 780,a164 --> 351,a165 --> 93,a166 --> 405,a167 --> 411,a168 --> 618,a169 --> 966,a170 --> 915,a171 --> 513,a172 --> 327,a173 --> 519,a174 --> 798,a175 --> 396,a176 --> 681,a177 --> 243,a178 --> 102,a179 --> 747,a180 --> 618,a181 --> 855,a182 --> 519,a183 --> 477,a184 --> 615,a185 --> 981,a186 --> 378,a187 --> 234,a188 --> 798,a189 --> 309,a190 --> 420,a191 --> 759,a192 --> 66,a193 --> 675,a194 --> 486,a195 --> 984,a196 --> 156,a197 --> 699,a198 --> 969,a199 --> 696,a200 --> 873,a201 --> 957,a202 --> 456,a203 --> 93,a204 --> 666,a205 --> 522,a206 --> 597,a207 --> 231,a208 --> 729,a209 --> 954,a210 --> 744,a211 --> 786,a212 --> 117,a213 --> 351,a214 --> 963,a215 --> 597,a216 --> 783,a217 --> 399,a218 --> 321,a219 --> 942,a220 --> 237,a221 --> 390,a222 --> 720,a223 --> 978,a224 --> 117,a225 --> 963,a226 --> 708,a227 --> 777,a228 --> 78,a229 --> 33,a230 --> 54,a231 --> 258,a232 --> 459,a233 --> 531,a234 --> 978,a235 --> 453,a236 --> 285,a237 --> 300,a238 --> 390,a239 --> 42,a240 --> 540,a241 --> 603,a242 --> 741,a243 --> 132,a244 --> 858,a245 --> 456,a246 --> 528,a247 --> 825,a248 --> 579,a249 --> 306,a250 --> 534,a251 --> 522,a252 --> 27,a253 --> 717,a254 --> 348,a255 --> 753,a256 --> 87,a257 --> 849,a258 --> 618,a259 --> 708,a260 --> 273,a261 --> 237,a262 --> 372,a263 --> 90,a264 --> 195,a265 --> 843,a266 --> 183,a267 --> 846,a268 --> 831,a269 --> 705,a270 --> 735,a271 --> 924,a272 --> 618,a273 --> 321,a274 --> 297,a275 --> 552,a276 --> 195,a277 --> 246,a278 --> 750,a279 --> 261,a280 --> 579,a281 --> 150,a282 --> 609,a283 --> 552,a284 --> 873,a285 --> 696,a286 --> 504,a287 --> 840,a288 --> 114,a289 --> 207,a290 --> 459,a291 --> 969,a292 --> 579,a293 --> 360,a294 --> 594,a295 --> 222,a296 --> 12,a297 --> 48,a298 --> 60,a299 --> 75,a300 --> 609,a301 --> 936,a302 --> 375,a303 --> 930,a304 --> 795,a305 --> 570,a306 --> 570,a307 --> 261,a308 --> 270,a309 --> 594,a310 --> 285,a311 --> 924,a312 --> 222,a313 --> 966,a314 --> 606,a315 --> 945,a316 --> 414,a317 --> 126,a318 --> 216,a319 --> 582,a320 --> 312,a321 --> 735,a322 --> 354,a323 --> 438,a324 --> 141,a325 --> 564,a326 --> 987,a327 --> 180,a328 --> 897,a329 --> 510,a330 --> 213,a331 --> 87,a332 --> 984,a333 --> 126,a334 --> 372,a335 --> 957,a336 --> 63,a337 --> 801,a338 --> 759,a339 --> 780,a340 --> 951,a341 --> 297,a342 --> 942,a343 --> 84,a344 --> 141,a345 --> 507,a346 --> 753,a347 --> 717,a348 --> 495,a349 --> 408,a350 --> 798,a351 --> 843,a352 --> 162,a353 --> 87,a354 --> 126,a355 --> 888,a356 --> 879,a357 --> 75,a358 --> 666,a359 --> 84,a360 --> 888,a361 --> 822,a362 --> 684,a363 --> 681,a364 --> 936,a365 --> 342,a366 --> 720,a367 --> 945,a368 --> 837,a369 --> 471,a370 --> 42,a371 --> 534,a372 --> 831,a373 --> 12,a374 --> 159,a375 --> 648,a376 --> 735,a377 --> 531,a378 --> 108,a379 --> 129,a380 --> 771,a381 --> 552,a382 --> 72,a383 --> 957,a384 --> 414,a385 --> 630,a386 --> 750,a387 --> 489,a388 --> 981,a389 --> 561,a390 --> 180,a391 --> 708,a392 --> 651,a393 --> 228,a394 --> 462,a395 --> 675,a396 --> 927,a397 --> 363,a398 --> 966,a399 --> 162,a400 --> 24,a401 --> 192,a402 --> 714,a403 --> 120,a404 --> 525,a405 --> 498,a406 --> 978,a407 --> 837,a408 --> 786,a409 --> 831,a410 --> 474,a411 --> 696,a412 --> 21,a413 --> 795,a414 --> 402,a415 --> 357,a416 --> 783,a417 --> 111,a418 --> 606,a419 --> 447,a420 --> 564,a421 --> 474,a422 --> 585,a423 --> 291,a424 --> 543,a425 --> 969,a426 --> 942,a427 --> 30,a428 --> 867,a429 --> 804,a430 --> 762,a431 --> 297,a432 --> 45,a433 --> 246,a434 --> 414,a435 --> 558,a436 --> 21,a437 --> 780,a438 --> 285,a439 --> 693,a440 --> 345,a441 --> 993,a442 --> 723,a443 --> 330,a444 --> 990,a445 --> 849,a446 --> 270,a447 --> 882,a448 --> 315,a449 --> 573,a450 --> 792,a451 --> 381,a452 --> 219,a453 --> 792,a454 --> 780,a455 --> 159,a456 --> 369,a457 --> 345,a458 --> 741,a459 --> 510,a460 --> 288,a461 --> 114,a462 --> 195,a463 --> 630,a464 --> 438,a465 --> 582,a466 --> 96,a467 --> 318,a468 --> 144,a469 --> 573,a470 --> 555,a471 --> 525,a472 --> 276,a473 --> 237,a474 --> 21,a475 --> 573,a476 --> 543,a477 --> 756,a478 --> 906,a479 --> 231,a480 --> 201,a481 --> 213,a482 --> 273,a483 --> 543,a484 --> 543,a485 --> 369,a486 --> 546,a487 --> 387,a488 --> 966,a489 --> 921,a490 --> 135,a491 --> 414,a492 --> 3,a493 --> 180,a494 --> 861,a495 --> 585,a496 --> 411,a497 --> 447,a498 --> 312,a499 --> 336,a500 --> 861
)
